MATILDA_Graphs/g0019.col
c File: data_files/evolved_graphs/g0019.col
c
c Auto generated graph
c
p edge 100 2656
e 1 3
e 1 8
e 1 14
e 1 17
e 1 18
e 1 19
e 1 20
e 1 28
e 1 29
e 1 30
e 1 31
e 1 32
e 1 33
e 1 34
e 1 35
e 1 36
e 1 37
e 1 44
e 1 51
e 1 61
e 1 62
e 1 63
e 1 64
e 1 65
e 1 72
e 1 73
e 1 74
e 1 75
e 1 76
e 1 77
e 1 78
e 1 79
e 1 80
e 1 81
e 1 82
e 1 83
e 1 84
e 1 85
e 1 86
e 1 87
e 1 88
e 1 89
e 1 91
e 1 92
e 1 93
e 1 94
e 1 95
e 1 96
e 1 97
e 1 98
e 1 100
e 2 14
e 2 15
e 2 17
e 2 18
e 2 19
e 2 20
e 2 26
e 2 28
e 2 29
e 2 30
e 2 31
e 2 32
e 2 33
e 2 34
e 2 35
e 2 36
e 2 37
e 2 57
e 2 61
e 2 62
e 2 63
e 2 64
e 2 72
e 2 73
e 2 74
e 2 75
e 2 76
e 2 77
e 2 78
e 2 79
e 2 80
e 2 81
e 2 82
e 2 83
e 2 84
e 2 85
e 2 86
e 2 87
e 2 88
e 2 89
e 2 90
e 2 91
e 2 92
e 2 93
e 2 94
e 2 95
e 2 96
e 2 97
e 2 98
e 2 99
e 3 14
e 3 15
e 3 17
e 3 18
e 3 19
e 3 28
e 3 30
e 3 31
e 3 32
e 3 33
e 3 34
e 3 35
e 3 36
e 3 37
e 3 46
e 3 61
e 3 62
e 3 63
e 3 64
e 3 65
e 3 67
e 3 72
e 3 73
e 3 74
e 3 75
e 3 76
e 3 77
e 3 78
e 3 79
e 3 80
e 3 81
e 3 82
e 3 83
e 3 84
e 3 85
e 3 86
e 3 87
e 3 88
e 3 89
e 3 90
e 3 91
e 3 93
e 3 94
e 3 95
e 3 96
e 3 97
e 3 98
e 3 99
e 3 100
e 4 17
e 4 18
e 4 19
e 4 20
e 4 26
e 4 28
e 4 29
e 4 30
e 4 31
e 4 32
e 4 33
e 4 34
e 4 35
e 4 36
e 4 37
e 4 38
e 4 51
e 4 61
e 4 62
e 4 63
e 4 64
e 4 65
e 4 71
e 4 72
e 4 73
e 4 75
e 4 76
e 4 77
e 4 78
e 4 79
e 4 80
e 4 81
e 4 82
e 4 83
e 4 84
e 4 85
e 4 86
e 4 87
e 4 88
e 4 89
e 4 91
e 4 93
e 4 94
e 4 95
e 4 96
e 4 99
e 4 100
e 5 6
e 5 14
e 5 15
e 5 17
e 5 18
e 5 19
e 5 20
e 5 24
e 5 25
e 5 26
e 5 27
e 5 29
e 5 30
e 5 31
e 5 32
e 5 33
e 5 34
e 5 35
e 5 36
e 5 37
e 5 61
e 5 62
e 5 63
e 5 64
e 5 65
e 5 72
e 5 73
e 5 74
e 5 75
e 5 78
e 5 80
e 5 81
e 5 82
e 5 83
e 5 84
e 5 86
e 5 88
e 5 89
e 5 90
e 5 93
e 5 94
e 5 95
e 5 96
e 5 97
e 5 98
e 5 99
e 6 15
e 6 17
e 6 18
e 6 19
e 6 20
e 6 24
e 6 25
e 6 26
e 6 27
e 6 28
e 6 29
e 6 30
e 6 31
e 6 32
e 6 33
e 6 34
e 6 35
e 6 36
e 6 37
e 6 41
e 6 42
e 6 53
e 6 61
e 6 62
e 6 63
e 6 64
e 6 65
e 6 72
e 6 73
e 6 74
e 6 75
e 6 76
e 6 77
e 6 78
e 6 81
e 6 82
e 6 83
e 6 84
e 6 85
e 6 86
e 6 87
e 6 88
e 6 89
e 6 90
e 6 91
e 6 92
e 6 93
e 6 94
e 6 95
e 6 96
e 6 97
e 6 98
e 6 99
e 6 100
e 7 17
e 7 18
e 7 19
e 7 20
e 7 24
e 7 25
e 7 26
e 7 27
e 7 28
e 7 29
e 7 30
e 7 31
e 7 32
e 7 33
e 7 34
e 7 35
e 7 36
e 7 37
e 7 38
e 7 39
e 7 40
e 7 41
e 7 42
e 7 43
e 7 44
e 7 45
e 7 46
e 7 47
e 7 48
e 7 50
e 7 51
e 7 52
e 7 53
e 7 54
e 7 55
e 7 56
e 7 57
e 7 58
e 7 59
e 7 60
e 7 61
e 7 63
e 7 66
e 7 67
e 7 68
e 7 69
e 7 70
e 7 71
e 7 72
e 7 73
e 7 74
e 7 75
e 7 81
e 7 82
e 7 83
e 7 84
e 7 85
e 7 86
e 7 87
e 7 88
e 7 91
e 7 92
e 7 94
e 7 95
e 7 96
e 7 98
e 7 99
e 7 100
e 8 14
e 8 15
e 8 17
e 8 18
e 8 19
e 8 20
e 8 24
e 8 25
e 8 26
e 8 27
e 8 28
e 8 29
e 8 30
e 8 31
e 8 32
e 8 33
e 8 34
e 8 35
e 8 36
e 8 37
e 8 38
e 8 39
e 8 40
e 8 41
e 8 42
e 8 43
e 8 44
e 8 45
e 8 47
e 8 48
e 8 49
e 8 50
e 8 51
e 8 52
e 8 53
e 8 54
e 8 55
e 8 56
e 8 57
e 8 58
e 8 59
e 8 60
e 8 61
e 8 62
e 8 63
e 8 64
e 8 65
e 8 66
e 8 67
e 8 68
e 8 69
e 8 70
e 8 71
e 8 72
e 8 73
e 8 74
e 8 75
e 8 76
e 8 77
e 8 79
e 8 81
e 8 82
e 8 84
e 8 85
e 8 86
e 8 87
e 8 88
e 8 90
e 8 91
e 8 92
e 8 93
e 8 94
e 8 95
e 8 96
e 8 97
e 8 99
e 8 100
e 9 14
e 9 15
e 9 17
e 9 18
e 9 19
e 9 20
e 9 23
e 9 24
e 9 25
e 9 26
e 9 27
e 9 28
e 9 29
e 9 30
e 9 31
e 9 32
e 9 33
e 9 34
e 9 35
e 9 36
e 9 37
e 9 38
e 9 39
e 9 40
e 9 41
e 9 42
e 9 43
e 9 44
e 9 45
e 9 46
e 9 47
e 9 48
e 9 49
e 9 50
e 9 51
e 9 52
e 9 53
e 9 54
e 9 55
e 9 56
e 9 57
e 9 58
e 9 59
e 9 60
e 9 61
e 9 62
e 9 63
e 9 64
e 9 65
e 9 66
e 9 67
e 9 68
e 9 69
e 9 70
e 9 71
e 9 73
e 9 74
e 9 75
e 9 76
e 9 77
e 9 78
e 9 79
e 9 80
e 9 81
e 9 82
e 9 83
e 9 84
e 9 85
e 9 86
e 9 87
e 9 88
e 9 89
e 9 90
e 9 91
e 9 92
e 9 93
e 9 94
e 9 95
e 9 96
e 9 97
e 9 98
e 9 99
e 9 100
e 10 14
e 10 15
e 10 17
e 10 18
e 10 19
e 10 20
e 10 24
e 10 25
e 10 26
e 10 27
e 10 28
e 10 29
e 10 30
e 10 31
e 10 32
e 10 33
e 10 34
e 10 35
e 10 36
e 10 37
e 10 38
e 10 39
e 10 40
e 10 41
e 10 42
e 10 43
e 10 44
e 10 45
e 10 46
e 10 47
e 10 48
e 10 49
e 10 50
e 10 51
e 10 52
e 10 53
e 10 54
e 10 55
e 10 56
e 10 57
e 10 58
e 10 59
e 10 60
e 10 61
e 10 62
e 10 63
e 10 64
e 10 65
e 10 66
e 10 67
e 10 68
e 10 70
e 10 71
e 10 72
e 10 73
e 10 74
e 10 75
e 10 76
e 10 77
e 10 78
e 10 79
e 10 80
e 10 81
e 10 82
e 10 83
e 10 84
e 10 85
e 10 86
e 10 88
e 10 89
e 10 90
e 10 91
e 10 93
e 10 94
e 10 95
e 10 96
e 10 97
e 10 100
e 11 14
e 11 15
e 11 17
e 11 18
e 11 19
e 11 20
e 11 24
e 11 25
e 11 26
e 11 27
e 11 28
e 11 29
e 11 30
e 11 31
e 11 32
e 11 34
e 11 35
e 11 36
e 11 37
e 11 39
e 11 40
e 11 41
e 11 42
e 11 43
e 11 44
e 11 45
e 11 46
e 11 48
e 11 49
e 11 50
e 11 51
e 11 52
e 11 53
e 11 54
e 11 55
e 11 56
e 11 57
e 11 58
e 11 59
e 11 60
e 11 61
e 11 62
e 11 63
e 11 64
e 11 65
e 11 66
e 11 67
e 11 69
e 11 70
e 11 71
e 11 72
e 11 73
e 11 74
e 11 75
e 11 76
e 11 78
e 11 79
e 11 80
e 11 81
e 11 82
e 11 83
e 11 84
e 11 85
e 11 86
e 11 88
e 11 89
e 11 90
e 11 91
e 11 92
e 11 93
e 11 94
e 11 95
e 11 97
e 11 98
e 11 100
e 12 14
e 12 17
e 12 18
e 12 19
e 12 20
e 12 24
e 12 25
e 12 26
e 12 27
e 12 28
e 12 29
e 12 30
e 12 31
e 12 32
e 12 33
e 12 34
e 12 35
e 12 36
e 12 38
e 12 39
e 12 40
e 12 41
e 12 42
e 12 43
e 12 44
e 12 45
e 12 46
e 12 47
e 12 48
e 12 49
e 12 50
e 12 51
e 12 52
e 12 53
e 12 54
e 12 55
e 12 56
e 12 57
e 12 58
e 12 59
e 12 60
e 12 61
e 12 62
e 12 63
e 12 64
e 12 65
e 12 66
e 12 67
e 12 68
e 12 69
e 12 70
e 12 71
e 12 72
e 12 74
e 12 75
e 12 76
e 12 77
e 12 78
e 12 79
e 12 80
e 12 81
e 12 82
e 12 83
e 12 85
e 12 86
e 12 87
e 12 88
e 12 89
e 12 90
e 12 91
e 12 92
e 12 93
e 12 94
e 12 95
e 12 96
e 12 97
e 12 98
e 12 99
e 12 100
e 13 14
e 13 15
e 13 17
e 13 18
e 13 19
e 13 20
e 13 24
e 13 25
e 13 26
e 13 27
e 13 31
e 13 32
e 13 33
e 13 34
e 13 35
e 13 36
e 13 38
e 13 39
e 13 40
e 13 41
e 13 42
e 13 43
e 13 44
e 13 45
e 13 46
e 13 48
e 13 49
e 13 50
e 13 51
e 13 52
e 13 53
e 13 54
e 13 55
e 13 56
e 13 57
e 13 58
e 13 59
e 13 60
e 13 61
e 13 62
e 13 63
e 13 64
e 13 65
e 13 66
e 13 67
e 13 68
e 13 69
e 13 70
e 13 71
e 13 72
e 13 73
e 13 79
e 13 80
e 13 81
e 13 83
e 13 84
e 13 85
e 13 86
e 13 87
e 13 88
e 13 89
e 13 90
e 13 91
e 13 92
e 13 95
e 13 96
e 13 97
e 13 98
e 13 99
e 13 100
e 14 20
e 14 24
e 14 25
e 14 26
e 14 27
e 14 35
e 14 37
e 14 38
e 14 39
e 14 40
e 14 41
e 14 42
e 14 43
e 14 44
e 14 45
e 14 46
e 14 47
e 14 48
e 14 49
e 14 50
e 14 51
e 14 52
e 14 53
e 14 54
e 14 55
e 14 56
e 14 57
e 14 58
e 14 59
e 14 60
e 14 61
e 14 62
e 14 63
e 14 64
e 14 65
e 14 66
e 14 67
e 14 68
e 14 69
e 14 70
e 14 71
e 14 72
e 14 73
e 14 76
e 14 77
e 14 80
e 14 81
e 14 82
e 14 83
e 14 84
e 14 85
e 14 86
e 14 87
e 14 88
e 14 90
e 14 91
e 14 92
e 14 93
e 14 95
e 14 96
e 14 97
e 14 98
e 14 99
e 15 24
e 15 25
e 15 26
e 15 27
e 15 36
e 15 38
e 15 39
e 15 40
e 15 41
e 15 42
e 15 43
e 15 44
e 15 45
e 15 46
e 15 47
e 15 48
e 15 49
e 15 50
e 15 51
e 15 52
e 15 53
e 15 54
e 15 55
e 15 56
e 15 57
e 15 58
e 15 59
e 15 60
e 15 61
e 15 62
e 15 63
e 15 64
e 15 65
e 15 66
e 15 67
e 15 68
e 15 69
e 15 70
e 15 71
e 15 72
e 15 73
e 15 77
e 15 78
e 15 80
e 15 81
e 15 82
e 15 83
e 15 84
e 15 85
e 15 86
e 15 87
e 15 88
e 15 89
e 15 90
e 15 91
e 15 92
e 15 93
e 15 94
e 15 95
e 15 96
e 15 97
e 15 98
e 15 99
e 16 35
e 16 37
e 16 49
e 16 51
e 16 52
e 16 53
e 16 54
e 16 55
e 16 56
e 16 57
e 16 58
e 16 59
e 16 60
e 16 61
e 16 62
e 16 63
e 16 64
e 16 65
e 16 66
e 16 67
e 16 68
e 16 69
e 16 70
e 16 71
e 16 72
e 16 73
e 16 75
e 16 78
e 16 80
e 16 81
e 16 82
e 16 83
e 16 85
e 16 87
e 16 88
e 16 89
e 16 92
e 16 93
e 16 94
e 16 95
e 16 96
e 16 97
e 16 98
e 16 99
e 17 21
e 17 22
e 17 23
e 17 31
e 17 32
e 17 33
e 17 35
e 17 36
e 17 37
e 17 39
e 17 44
e 17 51
e 17 52
e 17 53
e 17 54
e 17 55
e 17 56
e 17 57
e 17 58
e 17 59
e 17 60
e 17 61
e 17 62
e 17 63
e 17 64
e 17 66
e 17 67
e 17 68
e 17 69
e 17 70
e 17 71
e 17 72
e 17 73
e 17 80
e 17 81
e 17 82
e 17 83
e 17 84
e 17 86
e 17 87
e 17 88
e 17 89
e 17 90
e 17 91
e 17 93
e 17 94
e 17 95
e 17 96
e 17 97
e 17 98
e 17 99
e 18 21
e 18 22
e 18 23
e 18 31
e 18 33
e 18 34
e 18 35
e 18 36
e 18 37
e 18 39
e 18 41
e 18 42
e 18 43
e 18 44
e 18 45
e 18 46
e 18 47
e 18 48
e 18 50
e 18 51
e 18 52
e 18 53
e 18 54
e 18 55
e 18 56
e 18 57
e 18 58
e 18 59
e 18 60
e 18 61
e 18 62
e 18 63
e 18 64
e 18 66
e 18 67
e 18 68
e 18 69
e 18 70
e 18 71
e 18 72
e 18 73
e 18 74
e 18 75
e 18 78
e 18 81
e 18 83
e 18 84
e 18 85
e 18 86
e 18 87
e 18 88
e 18 89
e 18 90
e 18 91
e 18 93
e 18 94
e 18 95
e 18 96
e 18 97
e 18 99
e 19 21
e 19 22
e 19 23
e 19 31
e 19 32
e 19 33
e 19 34
e 19 35
e 19 36
e 19 37
e 19 38
e 19 42
e 19 43
e 19 44
e 19 45
e 19 46
e 19 47
e 19 48
e 19 49
e 19 50
e 19 51
e 19 52
e 19 53
e 19 54
e 19 56
e 19 57
e 19 58
e 19 59
e 19 60
e 19 61
e 19 62
e 19 63
e 19 66
e 19 67
e 19 68
e 19 69
e 19 70
e 19 71
e 19 72
e 19 73
e 19 74
e 19 75
e 19 77
e 19 78
e 19 79
e 19 81
e 19 82
e 19 83
e 19 84
e 19 85
e 19 86
e 19 87
e 19 88
e 19 90
e 19 91
e 19 92
e 19 93
e 19 95
e 19 96
e 19 97
e 19 98
e 19 99
e 20 21
e 20 22
e 20 23
e 20 31
e 20 32
e 20 33
e 20 34
e 20 35
e 20 36
e 20 38
e 20 39
e 20 40
e 20 41
e 20 42
e 20 43
e 20 44
e 20 45
e 20 46
e 20 47
e 20 48
e 20 49
e 20 50
e 20 51
e 20 52
e 20 53
e 20 54
e 20 55
e 20 56
e 20 57
e 20 58
e 20 59
e 20 60
e 20 61
e 20 62
e 20 63
e 20 64
e 20 65
e 20 66
e 20 67
e 20 68
e 20 69
e 20 70
e 20 71
e 20 72
e 20 73
e 20 74
e 20 77
e 20 78
e 20 79
e 20 80
e 20 81
e 20 84
e 20 85
e 20 86
e 20 87
e 20 88
e 20 89
e 20 90
e 20 91
e 20 92
e 20 93
e 20 94
e 20 95
e 20 97
e 20 98
e 20 99
e 20 100
e 21 22
e 21 31
e 21 32
e 21 33
e 21 34
e 21 35
e 21 36
e 21 37
e 21 39
e 21 40
e 21 41
e 21 42
e 21 43
e 21 44
e 21 46
e 21 47
e 21 48
e 21 49
e 21 50
e 21 51
e 21 52
e 21 53
e 21 54
e 21 55
e 21 56
e 21 57
e 21 58
e 21 59
e 21 60
e 21 61
e 21 62
e 21 63
e 21 64
e 21 65
e 21 66
e 21 67
e 21 68
e 21 69
e 21 70
e 21 71
e 21 72
e 21 73
e 21 74
e 21 75
e 21 76
e 21 77
e 21 78
e 21 79
e 21 81
e 21 84
e 21 85
e 21 87
e 21 88
e 21 89
e 21 90
e 21 91
e 21 92
e 21 93
e 21 95
e 21 96
e 21 97
e 21 98
e 22 31
e 22 32
e 22 33
e 22 34
e 22 35
e 22 36
e 22 37
e 22 38
e 22 39
e 22 40
e 22 41
e 22 42
e 22 43
e 22 44
e 22 45
e 22 46
e 22 47
e 22 48
e 22 49
e 22 50
e 22 51
e 22 52
e 22 53
e 22 54
e 22 55
e 22 56
e 22 57
e 22 58
e 22 59
e 22 60
e 22 61
e 22 62
e 22 63
e 22 64
e 22 65
e 22 66
e 22 67
e 22 69
e 22 70
e 22 71
e 22 72
e 22 73
e 22 74
e 22 75
e 22 76
e 22 77
e 22 79
e 22 84
e 22 85
e 22 86
e 22 87
e 22 88
e 22 90
e 22 91
e 22 92
e 22 94
e 22 95
e 22 96
e 22 97
e 22 98
e 23 31
e 23 32
e 23 33
e 23 34
e 23 35
e 23 36
e 23 37
e 23 38
e 23 39
e 23 40
e 23 41
e 23 42
e 23 43
e 23 45
e 23 47
e 23 48
e 23 54
e 23 58
e 23 66
e 23 79
e 23 81
e 23 82
e 23 83
e 23 84
e 23 85
e 23 86
e 23 87
e 23 88
e 23 89
e 23 90
e 23 91
e 23 92
e 23 93
e 23 94
e 23 95
e 23 96
e 23 97
e 23 100
e 24 30
e 24 31
e 24 32
e 24 33
e 24 34
e 24 35
e 24 36
e 24 37
e 24 38
e 24 39
e 24 40
e 24 41
e 24 42
e 24 43
e 24 44
e 24 45
e 24 46
e 24 47
e 24 61
e 24 65
e 24 69
e 24 78
e 24 79
e 24 80
e 24 81
e 24 82
e 24 83
e 24 84
e 24 85
e 24 86
e 24 87
e 24 88
e 24 89
e 24 90
e 24 91
e 24 92
e 24 93
e 24 94
e 24 96
e 24 97
e 24 98
e 25 30
e 25 31
e 25 33
e 25 34
e 25 35
e 25 36
e 25 37
e 25 38
e 25 39
e 25 40
e 25 41
e 25 42
e 25 43
e 25 44
e 25 45
e 25 46
e 25 47
e 25 48
e 25 51
e 25 65
e 25 79
e 25 83
e 25 84
e 25 85
e 25 86
e 25 87
e 25 88
e 25 89
e 25 90
e 25 92
e 25 93
e 25 94
e 25 95
e 25 96
e 25 98
e 26 30
e 26 31
e 26 32
e 26 33
e 26 34
e 26 35
e 26 36
e 26 37
e 26 38
e 26 39
e 26 40
e 26 41
e 26 42
e 26 43
e 26 44
e 26 45
e 26 46
e 26 47
e 26 48
e 26 61
e 26 74
e 26 76
e 26 79
e 26 80
e 26 81
e 26 82
e 26 83
e 26 84
e 26 85
e 26 86
e 26 87
e 26 89
e 26 90
e 26 91
e 26 92
e 26 93
e 26 94
e 26 95
e 26 96
e 26 97
e 26 98
e 26 99
e 26 100
e 27 30
e 27 31
e 27 32
e 27 33
e 27 34
e 27 35
e 27 36
e 27 37
e 27 38
e 27 39
e 27 40
e 27 41
e 27 42
e 27 43
e 27 44
e 27 45
e 27 46
e 27 47
e 27 48
e 27 54
e 27 71
e 27 79
e 27 80
e 27 81
e 27 82
e 27 83
e 27 84
e 27 85
e 27 86
e 27 87
e 27 88
e 27 89
e 27 90
e 27 91
e 27 92
e 27 93
e 27 94
e 27 95
e 27 96
e 27 97
e 27 98
e 27 99
e 27 100
e 28 30
e 28 31
e 28 32
e 28 33
e 28 34
e 28 35
e 28 36
e 28 37
e 28 38
e 28 39
e 28 40
e 28 41
e 28 42
e 28 43
e 28 44
e 28 45
e 28 46
e 28 47
e 28 48
e 28 54
e 28 67
e 28 69
e 28 79
e 28 80
e 28 81
e 28 82
e 28 83
e 28 84
e 28 85
e 28 86
e 28 87
e 28 88
e 28 91
e 28 92
e 28 93
e 28 95
e 28 96
e 28 97
e 28 98
e 28 99
e 28 100
e 29 30
e 29 31
e 29 32
e 29 33
e 29 34
e 29 35
e 29 36
e 29 37
e 29 38
e 29 39
e 29 40
e 29 41
e 29 42
e 29 43
e 29 44
e 29 45
e 29 46
e 29 47
e 29 59
e 29 69
e 29 77
e 29 79
e 29 80
e 29 81
e 29 82
e 29 83
e 29 85
e 29 86
e 29 87
e 29 88
e 29 89
e 29 91
e 29 92
e 29 93
e 29 94
e 29 95
e 29 96
e 29 97
e 29 98
e 29 99
e 29 100
e 30 37
e 30 38
e 30 39
e 30 40
e 30 41
e 30 42
e 30 43
e 30 46
e 30 47
e 30 48
e 30 49
e 30 50
e 30 51
e 30 52
e 30 53
e 30 54
e 30 55
e 30 56
e 30 57
e 30 58
e 30 59
e 30 60
e 30 61
e 30 62
e 30 63
e 30 64
e 30 65
e 30 66
e 30 67
e 30 68
e 30 69
e 30 70
e 30 71
e 30 72
e 30 73
e 30 74
e 30 75
e 30 76
e 30 77
e 30 78
e 30 79
e 30 80
e 30 81
e 30 82
e 30 84
e 30 85
e 30 86
e 30 87
e 30 88
e 30 89
e 30 90
e 30 91
e 30 92
e 30 93
e 30 94
e 30 95
e 30 96
e 30 97
e 30 98
e 30 99
e 30 100
e 31 33
e 31 38
e 31 39
e 31 40
e 31 41
e 31 42
e 31 43
e 31 46
e 31 47
e 31 49
e 31 50
e 31 51
e 31 53
e 31 54
e 31 55
e 31 56
e 31 57
e 31 58
e 31 59
e 31 60
e 31 61
e 31 62
e 31 63
e 31 64
e 31 65
e 31 66
e 31 67
e 31 68
e 31 69
e 31 70
e 31 71
e 31 72
e 31 73
e 31 74
e 31 75
e 31 76
e 31 77
e 31 78
e 31 79
e 31 80
e 31 81
e 31 82
e 31 83
e 31 84
e 31 85
e 31 86
e 31 87
e 31 88
e 31 89
e 31 90
e 31 91
e 31 92
e 31 93
e 31 94
e 31 96
e 31 97
e 31 98
e 31 99
e 32 38
e 32 39
e 32 40
e 32 41
e 32 42
e 32 45
e 32 46
e 32 48
e 32 49
e 32 50
e 32 51
e 32 52
e 32 54
e 32 55
e 32 56
e 32 57
e 32 58
e 32 59
e 32 60
e 32 61
e 32 62
e 32 63
e 32 64
e 32 65
e 32 66
e 32 67
e 32 68
e 32 69
e 32 70
e 32 71
e 32 72
e 32 73
e 32 74
e 32 75
e 32 76
e 32 77
e 32 78
e 32 79
e 32 80
e 32 81
e 32 82
e 32 83
e 32 85
e 32 86
e 32 87
e 32 88
e 32 89
e 32 90
e 32 91
e 32 92
e 32 93
e 32 94
e 32 95
e 32 96
e 32 98
e 32 99
e 32 100
e 33 38
e 33 39
e 33 41
e 33 42
e 33 44
e 33 47
e 33 48
e 33 49
e 33 50
e 33 51
e 33 52
e 33 53
e 33 54
e 33 55
e 33 56
e 33 57
e 33 58
e 33 59
e 33 60
e 33 61
e 33 62
e 33 63
e 33 64
e 33 65
e 33 66
e 33 67
e 33 68
e 33 69
e 33 70
e 33 71
e 33 72
e 33 73
e 33 74
e 33 75
e 33 76
e 33 77
e 33 78
e 33 79
e 33 81
e 33 82
e 33 83
e 33 84
e 33 85
e 33 87
e 33 88
e 33 89
e 33 90
e 33 91
e 33 92
e 33 93
e 33 94
e 33 95
e 33 96
e 33 98
e 33 99
e 33 100
e 34 38
e 34 39
e 34 40
e 34 41
e 34 42
e 34 43
e 34 44
e 34 46
e 34 47
e 34 48
e 34 49
e 34 50
e 34 51
e 34 52
e 34 53
e 34 54
e 34 55
e 34 56
e 34 57
e 34 58
e 34 59
e 34 60
e 34 61
e 34 62
e 34 63
e 34 64
e 34 65
e 34 66
e 34 67
e 34 68
e 34 69
e 34 70
e 34 71
e 34 72
e 34 73
e 34 74
e 34 75
e 34 76
e 34 77
e 34 78
e 34 79
e 34 80
e 34 81
e 34 82
e 34 83
e 34 84
e 34 86
e 34 87
e 34 88
e 34 89
e 34 90
e 34 92
e 34 95
e 34 96
e 34 97
e 34 98
e 34 99
e 34 100
e 35 41
e 35 42
e 35 49
e 35 50
e 35 51
e 35 52
e 35 53
e 35 54
e 35 55
e 35 56
e 35 57
e 35 58
e 35 59
e 35 60
e 35 61
e 35 62
e 35 63
e 35 64
e 35 65
e 35 66
e 35 67
e 35 68
e 35 69
e 35 70
e 35 71
e 35 72
e 35 73
e 35 74
e 35 75
e 35 76
e 35 77
e 35 78
e 35 79
e 35 80
e 35 81
e 35 82
e 35 83
e 35 84
e 35 85
e 35 87
e 35 88
e 35 89
e 35 90
e 35 91
e 35 92
e 35 93
e 35 94
e 35 95
e 35 96
e 35 97
e 35 98
e 35 99
e 35 100
e 36 37
e 36 41
e 36 42
e 36 49
e 36 50
e 36 51
e 36 52
e 36 53
e 36 54
e 36 55
e 36 56
e 36 57
e 36 58
e 36 59
e 36 60
e 36 61
e 36 62
e 36 63
e 36 64
e 36 65
e 36 66
e 36 67
e 36 68
e 36 69
e 36 70
e 36 71
e 36 72
e 36 73
e 36 74
e 36 75
e 36 76
e 36 77
e 36 78
e 36 79
e 36 81
e 36 82
e 36 83
e 36 84
e 36 85
e 36 86
e 36 87
e 36 88
e 36 90
e 36 93
e 36 94
e 36 95
e 36 96
e 36 97
e 36 98
e 36 99
e 36 100
e 37 41
e 37 42
e 37 49
e 37 50
e 37 51
e 37 52
e 37 53
e 37 54
e 37 55
e 37 56
e 37 57
e 37 58
e 37 59
e 37 60
e 37 61
e 37 62
e 37 63
e 37 64
e 37 65
e 37 66
e 37 67
e 37 68
e 37 70
e 37 71
e 37 72
e 37 73
e 37 74
e 37 75
e 37 76
e 37 77
e 37 78
e 37 79
e 37 80
e 37 82
e 37 85
e 37 86
e 37 87
e 37 88
e 37 89
e 37 90
e 37 92
e 37 93
e 37 94
e 37 95
e 37 96
e 37 97
e 37 98
e 37 99
e 37 100
e 38 42
e 38 43
e 38 44
e 38 45
e 38 46
e 38 47
e 38 48
e 38 50
e 38 51
e 38 52
e 38 53
e 38 54
e 38 55
e 38 56
e 38 58
e 38 59
e 38 60
e 38 61
e 38 62
e 38 63
e 38 64
e 38 65
e 38 66
e 38 67
e 38 68
e 38 69
e 38 70
e 38 71
e 38 72
e 38 73
e 38 74
e 38 75
e 38 76
e 38 77
e 38 78
e 39 40
e 39 42
e 39 43
e 39 44
e 39 45
e 39 46
e 39 47
e 39 48
e 39 49
e 39 50
e 39 51
e 39 52
e 39 53
e 39 54
e 39 55
e 39 56
e 39 57
e 39 58
e 39 59
e 39 60
e 39 61
e 39 62
e 39 63
e 39 64
e 39 65
e 39 66
e 39 67
e 39 69
e 39 70
e 39 71
e 39 72
e 39 73
e 39 74
e 39 75
e 39 76
e 39 77
e 39 78
e 40 42
e 40 43
e 40 44
e 40 45
e 40 46
e 40 47
e 40 48
e 40 49
e 40 50
e 40 51
e 40 52
e 40 53
e 40 54
e 40 55
e 40 56
e 40 57
e 40 58
e 40 59
e 40 60
e 40 61
e 40 62
e 40 63
e 40 64
e 40 65
e 40 66
e 40 67
e 40 68
e 40 69
e 40 70
e 40 71
e 40 72
e 40 73
e 40 74
e 40 75
e 40 76
e 40 77
e 40 78
e 41 42
e 41 43
e 41 44
e 41 45
e 41 46
e 41 47
e 41 48
e 41 49
e 41 50
e 41 51
e 41 52
e 41 53
e 41 54
e 41 55
e 41 56
e 41 57
e 41 58
e 41 59
e 41 60
e 41 61
e 41 62
e 41 63
e 41 64
e 41 65
e 41 66
e 41 67
e 41 68
e 41 69
e 41 70
e 41 71
e 41 72
e 41 73
e 41 74
e 41 75
e 41 76
e 41 77
e 41 78
e 41 92
e 41 100
e 42 49
e 42 50
e 42 75
e 42 76
e 42 77
e 42 78
e 42 81
e 42 94
e 42 100
e 43 50
e 43 54
e 43 60
e 43 63
e 43 75
e 43 76
e 43 77
e 43 78
e 43 82
e 43 84
e 43 93
e 43 100
e 44 48
e 44 49
e 44 50
e 44 73
e 44 75
e 44 76
e 44 77
e 44 78
e 44 96
e 45 46
e 45 49
e 45 75
e 45 76
e 45 77
e 45 78
e 45 89
e 46 49
e 46 50
e 46 75
e 46 76
e 46 77
e 46 78
e 47 49
e 47 50
e 47 65
e 47 75
e 47 76
e 47 77
e 47 78
e 47 93
e 47 95
e 48 49
e 48 52
e 48 75
e 48 76
e 48 77
e 48 78
e 48 100
e 49 75
e 49 76
e 49 77
e 49 78
e 49 82
e 49 93
e 49 99
e 49 100
e 50 75
e 50 76
e 50 77
e 50 78
e 50 84
e 50 100
e 51 72
e 51 75
e 51 76
e 51 77
e 51 78
e 51 80
e 51 100
e 52 69
e 52 75
e 52 76
e 52 77
e 52 100
e 53 75
e 53 76
e 53 77
e 53 78
e 53 100
e 54 55
e 54 75
e 54 76
e 54 77
e 54 78
e 54 100
e 55 75
e 55 76
e 55 77
e 55 78
e 55 80
e 55 100
e 56 65
e 56 66
e 56 75
e 56 76
e 56 77
e 56 78
e 56 79
e 56 80
e 56 81
e 56 82
e 56 83
e 56 84
e 56 85
e 56 87
e 56 88
e 56 89
e 56 90
e 56 91
e 56 100
e 57 64
e 57 75
e 57 76
e 57 77
e 57 78
e 57 79
e 57 80
e 57 81
e 57 84
e 57 85
e 57 86
e 57 87
e 57 88
e 57 89
e 57 90
e 57 91
e 57 100
e 58 75
e 58 76
e 58 77
e 58 78
e 58 79
e 58 80
e 58 81
e 58 82
e 58 83
e 58 84
e 58 85
e 58 86
e 58 87
e 58 89
e 58 91
e 59 74
e 59 75
e 59 76
e 59 77
e 59 78
e 59 79
e 59 80
e 59 81
e 59 82
e 59 83
e 59 84
e 59 86
e 59 87
e 59 88
e 59 89
e 59 90
e 59 100
e 60 75
e 60 76
e 60 77
e 60 78
e 60 79
e 60 80
e 60 81
e 60 82
e 60 83
e 60 84
e 60 85
e 60 86
e 60 87
e 60 88
e 60 89
e 60 90
e 60 100
e 61 75
e 61 76
e 61 77
e 61 78
e 61 79
e 61 80
e 61 81
e 61 82
e 61 83
e 61 84
e 61 85
e 61 86
e 61 88
e 61 89
e 61 90
e 61 91
e 61 100
e 62 78
e 62 79
e 62 80
e 62 81
e 62 82
e 62 83
e 62 85
e 62 86
e 62 87
e 62 88
e 62 89
e 63 67
e 63 76
e 63 79
e 63 80
e 63 81
e 63 82
e 63 84
e 63 85
e 63 86
e 63 87
e 63 89
e 63 90
e 63 91
e 63 100
e 64 79
e 64 80
e 64 81
e 64 82
e 64 83
e 64 84
e 64 86
e 64 87
e 64 88
e 64 89
e 64 90
e 64 91
e 64 100
e 65 72
e 65 73
e 65 79
e 65 80
e 65 81
e 65 82
e 65 83
e 65 84
e 65 85
e 65 86
e 65 87
e 65 88
e 65 89
e 65 90
e 65 91
e 65 100
e 66 77
e 66 79
e 66 80
e 66 81
e 66 82
e 66 83
e 66 84
e 66 85
e 66 86
e 66 87
e 66 88
e 66 89
e 66 90
e 66 91
e 67 69
e 67 75
e 67 76
e 67 77
e 67 78
e 67 79
e 67 80
e 67 81
e 67 83
e 67 84
e 67 86
e 67 87
e 67 100
e 68 75
e 68 76
e 68 77
e 68 78
e 68 79
e 68 80
e 68 81
e 68 83
e 68 84
e 68 85
e 68 86
e 68 87
e 69 79
e 69 80
e 69 81
e 69 82
e 69 83
e 69 84
e 69 85
e 69 87
e 69 100
e 70 79
e 70 80
e 70 81
e 70 82
e 70 83
e 70 84
e 70 85
e 70 86
e 70 87
e 70 89
e 71 79
e 71 80
e 71 81
e 71 82
e 71 83
e 71 84
e 71 85
e 71 86
e 71 87
e 71 100
e 72 79
e 72 80
e 72 81
e 72 82
e 72 84
e 72 86
e 72 87
e 72 100
e 73 76
e 73 79
e 73 80
e 73 81
e 73 82
e 73 83
e 73 85
e 73 86
e 73 87
e 73 100
e 74 79
e 74 80
e 74 81
e 74 82
e 74 83
e 74 84
e 74 85
e 74 87
e 74 100
e 75 89
e 75 96
e 75 100
e 76 79
e 76 100
e 77 97
e 77 98
e 77 99
e 77 100
e 78 79
e 78 98
e 78 99
e 78 100
e 79 97
e 79 98
e 79 100
e 80 97
e 80 98
e 80 99
e 80 100
e 81 97
e 81 100
e 82 88
e 82 97
e 82 98
e 82 99
e 82 100
e 83 95
e 83 97
e 83 98
e 83 99
e 83 100
e 84 90
e 84 97
e 84 98
e 84 99
e 84 100
e 85 97
e 85 98
e 85 99
e 85 100
e 86 97
e 86 98
e 86 99
e 86 100
e 87 98
e 87 99
e 87 100
e 88 97
e 88 98
e 88 99
e 88 100
e 89 97
e 89 98
e 89 99
e 89 100
e 90 97
e 90 98
e 90 99
e 90 100
e 91 97
e 91 98
e 91 99
e 91 100
e 92 98
e 92 99
e 92 100
e 93 95
e 93 97
e 94 100
e 95 98
