MATILDA_Graphs/g0019.sol
SET_INDEX
1012
2536
2965
2982
5801
14859
15846
15866
15927
16065
EOF
